
  22    4
  10   10   10   10

   0   0   0   0   0   5 2 3 4 5 7 
   7  10  10  10  10   6 21 20 19 15 11 8 
   6  10  10  10  10   4 21 13 10 6 
  10  10  10  10  10   5 20 12 11 10 9 
   4  10  10  10  10   4 14 11 10 9 
   2  10  10  10  10   4 20 18 12 9 
   9  10  10  10  10   4 19 18 17 16 
   1  10  10  10  10   3 18 17 13 
   4  10  10  10  10   1 16 
   8  10  10  10  10   1 18 
   8  10  10  10  10   1 17 
   6  10  10  10  10   1 19 
   8  10  10  10  10   1 16 
   7  10  10  10  10   1 17 
   1  10  10  10  10   1 17 
   7  10  10  10  10   1 22
   7  10  10  10  10   1 22
  10  10  10  10  10   1 22
   4  10  10  10  10   1 22
   3  10  10  10  10   1 22
   3  10  10  10  10   1 22
   0   0   0   0   0   0 
